p cnf 500 888
1 -2 0
1 -3 0
2 3 -1 0
4 -1 0
1 -4 0
5 -6 0
5 -7 0
6 7 -5 0
3 -5 0
-3 5 0
8 -9 0
8 -10 0
9 10 -8 0
7 -8 0
-7 8 0
11 -12 0
11 -13 0
12 13 -11 0
10 -11 0
-10 11 0
14 -15 0
14 -16 0
15 16 -14 0
13 -14 0
-13 14 0
17 -18 0
17 -19 0
18 19 -17 0
16 -17 0
-16 17 0
20 -21 0
20 -22 0
21 22 -20 0
19 -20 0
-19 20 0
23 -24 0
23 -25 0
24 25 -23 0
22 -23 0
-22 23 0
26 -27 0
26 -28 0
27 28 -26 0
25 -26 0
-25 26 0
29 -30 0
29 -31 0
30 31 -29 0
28 -29 0
-28 29 0
32 -33 0
-18 32 0
-21 32 0
-24 32 0
-27 32 0
-30 32 0
33 18 21 24 27 30 -32 0
31 -32 0
-31 32 0
34 -35 0
34 -36 0
35 36 -34 0
37 -34 0
34 -37 0
38 -39 0
38 -40 0
39 40 -38 0
36 -38 0
-36 38 0
41 -42 0
41 -43 0
42 43 -41 0
40 -41 0
-40 41 0
44 -45 0
44 -46 0
45 46 -44 0
43 -44 0
-43 44 0
47 -48 0
47 -49 0
48 49 -47 0
46 -47 0
-46 47 0
50 -51 0
50 -52 0
51 52 -50 0
49 -50 0
-49 50 0
53 -54 0
53 -55 0
54 55 -53 0
52 -53 0
-52 53 0
-45 56 0
-48 56 0
-51 56 0
-54 56 0
56 -57 0
45 48 51 54 57 -56 0
55 -56 0
-55 56 0
58 -59 0
58 -60 0
59 60 -58 0
61 -58 0
58 -61 0
62 -63 0
62 -64 0
63 64 -62 0
60 -62 0
-60 62 0
65 -66 0
65 -67 0
66 67 -65 0
64 -65 0
-64 65 0
68 -69 0
68 -70 0
69 70 -68 0
67 -68 0
-67 68 0
71 -72 0
71 -73 0
72 73 -71 0
70 -71 0
-70 71 0
74 -75 0
74 -76 0
75 76 -74 0
73 -74 0
-73 74 0
77 -78 0
77 -79 0
78 79 -77 0
76 -77 0
-76 77 0
80 -81 0
80 -82 0
81 82 -80 0
79 -80 0
-79 80 0
83 -84 0
83 -85 0
84 85 -83 0
82 -83 0
-82 83 0
86 -87 0
86 -88 0
87 88 -86 0
85 -86 0
-85 86 0
-75 89 0
-78 89 0
-81 89 0
-84 89 0
-87 89 0
89 -90 0
91 0
88 -89 0
-88 89 0
92 -93 0
92 -94 0
93 94 -92 0
95 -92 0
92 -95 0
96 -97 0
96 -98 0
97 98 -96 0
94 -96 0
-94 96 0
99 -100 0
99 -101 0
100 101 -99 0
98 -99 0
-98 99 0
-70 102 0
102 -103 0
70 103 -102 0
101 -102 0
-101 102 0
104 -105 0
104 -106 0
105 106 -104 0
107 -104 0
104 -107 0
108 -109 0
108 -110 0
109 110 -108 0
106 -108 0
-106 108 0
111 -112 0
111 -113 0
112 113 -111 0
110 -111 0
-110 111 0
-55 114 0
114 -115 0
55 115 -114 0
113 -114 0
-113 114 0
116 -117 0
116 -118 0
117 118 -116 0
119 -116 0
116 -119 0
120 -121 0
120 -122 0
121 122 -120 0
118 -120 0
-118 120 0
123 -124 0
-125 123 0
124 125 -123 0
122 -123 0
-122 123 0
125 -126 0
126 -125 0
127 -128 0
127 -129 0
128 129 -127 0
130 -127 0
127 -130 0
131 -132 0
131 -133 0
132 133 -131 0
129 -131 0
-129 131 0
134 -135 0
134 -136 0
135 136 -134 0
133 -134 0
-133 134 0
-52 137 0
137 -138 0
52 138 -137 0
136 -137 0
-136 137 0
139 -140 0
139 -141 0
140 141 -139 0
142 -139 0
139 -142 0
143 -144 0
143 -145 0
144 145 -143 0
141 -143 0
-141 143 0
146 -147 0
146 -148 0
147 148 -146 0
145 -146 0
-145 146 0
149 -150 0
149 -151 0
150 151 -149 0
148 -149 0
-148 149 0
152 -153 0
152 -154 0
153 154 -152 0
151 -152 0
-151 152 0
155 -156 0
155 -157 0
156 157 -155 0
154 -155 0
-154 155 0
158 -159 0
158 -160 0
159 160 -158 0
157 -158 0
-157 158 0
161 -162 0
161 -163 0
162 163 -161 0
160 -161 0
-160 161 0
164 -165 0
164 -166 0
165 166 -164 0
163 -164 0
-163 164 0
-159 167 0
-162 167 0
-165 167 0
167 -168 0
159 162 165 168 -167 0
166 -167 0
-166 167 0
169 -170 0
169 -171 0
170 171 -169 0
172 -169 0
169 -172 0
173 -174 0
173 -175 0
174 175 -173 0
171 -173 0
-171 173 0
176 -177 0
176 -178 0
177 178 -176 0
175 -176 0
-175 176 0
179 -180 0
179 -181 0
180 181 -179 0
178 -179 0
-178 179 0
182 -183 0
182 -184 0
183 184 -182 0
181 -182 0
-181 182 0
185 -186 0
185 -187 0
186 187 -185 0
184 -185 0
-184 185 0
188 -189 0
188 -190 0
189 190 -188 0
187 -188 0
-187 188 0
191 -192 0
191 -193 0
192 193 -191 0
190 -191 0
-190 191 0
194 -195 0
194 -196 0
195 196 -194 0
193 -194 0
-193 194 0
197 -198 0
197 -199 0
198 199 -197 0
196 -197 0
-196 197 0
-186 200 0
-189 200 0
-192 200 0
-195 200 0
-198 200 0
200 -201 0
202 0
199 -200 0
-199 200 0
203 -204 0
203 -205 0
204 205 -203 0
206 -203 0
203 -206 0
207 -208 0
207 -209 0
208 209 -207 0
205 -207 0
-205 207 0
210 -211 0
210 -212 0
211 212 -210 0
209 -210 0
-209 210 0
-163 213 0
213 -214 0
163 214 -213 0
212 -213 0
-212 213 0
215 -216 0
215 -217 0
216 217 -215 0
218 -215 0
215 -218 0
219 -220 0
219 -221 0
220 221 -219 0
217 -219 0
-217 219 0
222 -223 0
222 -224 0
223 224 -222 0
221 -222 0
-221 222 0
225 -226 0
225 -227 0
226 227 -225 0
224 -225 0
-224 225 0
228 -229 0
228 -230 0
229 230 -228 0
227 -228 0
-227 228 0
-220 231 0
-223 231 0
-226 231 0
-229 231 0
231 -232 0
220 223 226 229 232 -231 0
230 -231 0
-230 231 0
233 -234 0
233 -235 0
234 235 -233 0
236 -233 0
233 -236 0
237 -238 0
237 -239 0
238 239 -237 0
235 -237 0
-235 237 0
240 -241 0
240 -242 0
241 242 -240 0
239 -240 0
-239 240 0
243 -244 0
243 -245 0
244 245 -243 0
242 -243 0
-242 243 0
246 -247 0
246 -248 0
247 248 -246 0
245 -246 0
-245 246 0
249 -250 0
249 -251 0
250 251 -249 0
248 -249 0
-248 249 0
-238 252 0
-241 252 0
-244 252 0
-247 252 0
-250 252 0
252 -253 0
254 0
251 -252 0
-251 252 0
255 -256 0
255 -257 0
256 257 -255 0
258 -255 0
255 -258 0
259 -260 0
259 -261 0
260 261 -259 0
257 -259 0
-257 259 0
262 -263 0
262 -264 0
263 264 -262 0
261 -262 0
-261 262 0
265 -266 0
265 -267 0
266 267 -265 0
264 -265 0
-264 265 0
268 -269 0
268 -270 0
269 270 -268 0
267 -268 0
-267 268 0
271 -272 0
271 -273 0
272 273 -271 0
270 -271 0
-270 271 0
274 -275 0
274 -276 0
275 276 -274 0
273 -274 0
-273 274 0
277 -278 0
277 -279 0
278 279 -277 0
276 -277 0
-276 277 0
-272 280 0
-275 280 0
-278 280 0
280 -281 0
272 275 278 281 -280 0
279 -280 0
-279 280 0
282 -283 0
282 -284 0
283 284 -282 0
285 -282 0
282 -285 0
286 -287 0
286 -288 0
287 288 -286 0
284 -286 0
-284 286 0
289 -290 0
289 -291 0
290 291 -289 0
288 -289 0
-288 289 0
-218 292 0
292 -293 0
218 293 -292 0
291 -292 0
-291 292 0
294 -295 0
294 -296 0
295 296 -294 0
297 -294 0
294 -297 0
298 -299 0
298 -300 0
299 300 -298 0
296 -298 0
-296 298 0
301 -302 0
301 -303 0
302 303 -301 0
300 -301 0
-300 301 0
304 -305 0
304 -306 0
305 306 -304 0
303 -304 0
-303 304 0
307 -308 0
307 -309 0
308 309 -307 0
306 -307 0
-306 307 0
310 -311 0
310 -312 0
311 312 -310 0
309 -310 0
-309 310 0
313 -314 0
313 -315 0
314 315 -313 0
312 -313 0
-312 313 0
316 -317 0
316 -318 0
317 318 -316 0
315 -316 0
-315 316 0
319 -320 0
319 -321 0
320 321 -319 0
318 -319 0
-318 319 0
322 -323 0
322 -324 0
323 324 -322 0
321 -322 0
-321 322 0
325 -326 0
325 -327 0
326 327 -325 0
324 -325 0
-324 325 0
-314 328 0
-317 328 0
-320 328 0
-323 328 0
-326 328 0
328 -329 0
330 0
327 -328 0
-327 328 0
331 -332 0
331 -333 0
332 333 -331 0
334 -331 0
331 -334 0
335 -336 0
335 -337 0
336 337 -335 0
333 -335 0
-333 335 0
338 -339 0
338 -340 0
339 340 -338 0
337 -338 0
-337 338 0
341 -342 0
341 -343 0
342 343 -341 0
340 -341 0
-340 341 0
344 -345 0
344 -346 0
345 346 -344 0
343 -344 0
-343 344 0
347 -348 0
347 -349 0
348 349 -347 0
346 -347 0
-346 347 0
350 -351 0
350 -352 0
351 352 -350 0
349 -350 0
-349 350 0
-345 353 0
-348 353 0
-351 353 0
353 -354 0
345 348 351 354 -353 0
352 -353 0
-352 353 0
355 -356 0
355 -357 0
356 357 -355 0
358 -355 0
355 -358 0
359 -360 0
359 -361 0
360 361 -359 0
357 -359 0
-357 359 0
362 -363 0
362 -364 0
363 364 -362 0
361 -362 0
-361 362 0
365 -366 0
365 -367 0
366 367 -365 0
364 -365 0
-364 365 0
368 -369 0
368 -370 0
369 370 -368 0
367 -368 0
-367 368 0
371 -372 0
371 -373 0
372 373 -371 0
370 -371 0
-370 371 0
374 -375 0
374 -376 0
375 376 -374 0
373 -374 0
-373 374 0
377 -378 0
377 -379 0
378 379 -377 0
376 -377 0
-376 377 0
-366 380 0
-369 380 0
-372 380 0
-375 380 0
-378 380 0
380 -381 0
382 0
379 -380 0
-379 380 0
383 -384 0
383 -385 0
384 385 -383 0
386 -383 0
383 -386 0
387 -388 0
387 -389 0
388 389 -387 0
385 -387 0
-385 387 0
390 -391 0
390 -392 0
391 392 -390 0
389 -390 0
-389 390 0
393 -394 0
393 -395 0
394 395 -393 0
392 -393 0
-392 393 0
-76 396 0
396 -397 0
76 397 -396 0
395 -396 0
-395 396 0
398 -399 0
398 -400 0
399 400 -398 0
401 -398 0
398 -401 0
402 -403 0
402 -404 0
403 404 -402 0
400 -402 0
-400 402 0
405 -406 0
405 -407 0
406 407 -405 0
404 -405 0
-404 405 0
408 -409 0
408 -410 0
409 410 -408 0
407 -408 0
-407 408 0
411 -412 0
411 -413 0
412 413 -411 0
410 -411 0
-410 411 0
-346 414 0
414 -415 0
346 415 -414 0
413 -414 0
-413 414 0
416 -417 0
416 -418 0
417 418 -416 0
419 -416 0
416 -419 0
420 -421 0
420 -422 0
421 422 -420 0
418 -420 0
-418 420 0
423 -424 0
423 -425 0
424 425 -423 0
422 -423 0
-422 423 0
426 -427 0
426 -428 0
427 428 -426 0
425 -426 0
-425 426 0
429 -430 0
429 -431 0
430 431 -429 0
428 -429 0
-428 429 0
432 -433 0
432 -434 0
433 434 -432 0
431 -432 0
-431 432 0
435 -436 0
435 -437 0
436 437 -435 0
434 -435 0
-434 435 0
438 -439 0
438 -440 0
439 440 -438 0
437 -438 0
-437 438 0
-276 441 0
441 -442 0
276 442 -441 0
440 -441 0
-440 441 0
443 -444 0
443 -445 0
444 445 -443 0
446 -443 0
443 -446 0
447 -448 0
447 -449 0
448 449 -447 0
445 -447 0
-445 447 0
-410 450 0
450 -451 0
410 451 -450 0
449 -450 0
-449 450 0
452 -453 0
452 -454 0
453 454 -452 0
455 -452 0
452 -455 0
456 -457 0
456 -458 0
457 458 -456 0
454 -456 0
-454 456 0
459 -460 0
459 -461 0
460 461 -459 0
458 -459 0
-458 459 0
462 -463 0
462 -464 0
463 464 -462 0
461 -462 0
-461 462 0
465 -466 0
465 -467 0
466 467 -465 0
464 -465 0
-464 465 0
468 -469 0
468 -470 0
469 470 -468 0
467 -468 0
-467 468 0
471 -472 0
471 -473 0
472 473 -471 0
470 -471 0
-470 471 0
474 -475 0
474 -476 0
475 476 -474 0
473 -474 0
-473 474 0
477 -478 0
477 -479 0
478 479 -477 0
476 -477 0
-476 477 0
480 -481 0
480 -482 0
481 482 -480 0
479 -480 0
-479 480 0
483 -484 0
483 -485 0
484 485 -483 0
482 -483 0
-482 483 0
-472 486 0
-475 486 0
-478 486 0
-481 486 0
-484 486 0
486 -487 0
488 0
485 -486 0
-485 486 0
489 -490 0
489 -491 0
490 491 -489 0
492 -489 0
489 -492 0
493 -494 0
493 -495 0
494 495 -493 0
491 -493 0
-491 493 0
-227 496 0
496 -497 0
227 497 -496 0
495 -496 0
-495 496 0
-340 498 0
498 -499 0
340 499 -498 0
500 -498 0
498 -500 0
4 0
37 0
61 0
95 0
107 0
119 0
-125 0
130 0
142 0
172 0
206 0
218 0
236 0
258 0
276 0
285 0
297 0
334 0
358 0
386 0
401 0
419 0
446 0
455 0
492 0
500 0
